NAME : A-n32-k5 depot: 82 76
COMMENT : (Augerat et al, No of trucks: 5, Optimal value: 784)
TYPE : CVRP
DIMENSION : 32
EDGE_WEIGHT_TYPE : EUC_2D 
CAPACITY : 100
NODE_COORD_SECTION 
 1 96 44
 2 50 5
 3 49 8
 4 13 7
 5 29 89
 6 58 30
 7 84 39
 8 14 24
 9 2 39
 10 3 82
 11 5 10
 12 98 52
 13 84 25
 14 61 59
 15 1 65
 16 88 51
 17 91 2
 18 19 32
 19 93 3
 20 50 93
 21 98 14
 22 5 42
 23 42 9
 24 61 62
 25 9 97
 26 80 55
 27 57 69
 28 23 15
 29 20 70
 30 85 60
 31 98 5
DEMAND_SECTION 
1 19 
2 21 
3 6 
4 19 
5 7 
6 12 
7 16 
8 6 
9 16 
10 8 
11 14 
12 21 
13 16 
14 3 
15 22 
16 18 
17 19 
18 1 
19 24 
20 8 
21 12 
22 4 
23 8 
24 24 
25 24 
26 2 
27 20 
28 15 
29 2 
30 14 
31 9 
DEPOT_SECTION 
 1  
 -1  
EOF 
